networks/zoo_63_595/zoo_63_595.txt
Number of groups: 30
Flow 6: {2 7} {7 8} {8 40} 
Flow 10: {28 13} {13 45} 
Flow 13: {6 10} {10 18} {18 17} {17 49} 
Flow 62: {4 24} {24 56} 
Flow 67: {4 23} {23 31} {31 30} {30 62} 
Flow 133: {12 27} {27 26} {26 15} {15 25} {25 57} 
Flow 136: {7 31} {31 12} {12 29} {29 28} {28 60} 
Flow 143: {8 7} {7 5} {5 6} {6 38} 
Flow 164: {9 10} {10 42} 
Flow 197: {11 12} {12 44} 
Flow 213: {16 17} {17 18} {18 50} 
Flow 226: {3 24} {24 4} {4 36} 
Flow 232: {29 12} {12 11} {11 43} 
Flow 261: {14 31} {31 20} {20 52} 
Flow 268: {23 4} {4 1} {1 33} 
Flow 270: {13 3} {3 35} 
Flow 283: {18 10} {10 19} {19 51} 
Flow 285: {15 21} {21 53} 
Flow 286: {26 22} {22 54} 
Flow 299: {27 12} {12 31} 
Flow 322: {17 16} {16 15} {15 47} 
Flow 335: {5 7} {7 2} {2 34} 
Flow 357: {19 10} {10 6} {6 5} {5 37} 
Flow 374: {20 31} {31 7} {7 39} 
Flow 397: {21 15} {15 26} {26 27} {27 59} 
Flow 417: {22 26} {26 58} 
Flow 450: {24 3} {3 13} {13 28} {28 29} {29 61} 
Flow 463: {25 15} {15 16} {16 48} 
Flow 561: {30 31} {31 23} {23 55} 
Flow 595: {32 31} {31 63} 
Time taken running everything: 86 seconds
