networks/zoo_63_595/zoo_63_595.sol
<?xml version = "1.0" encoding="UTF-8" standalone="yes"?>
<CPLEXSolution version="1.2">
 <header
   problemName="networks/zoo_63_595/zoo_63_595.lp"
   solutionName="incumbent"
   solutionIndex="-1"
   objectiveValue="30"
   solutionTypeValue="3"
   solutionTypeString="primal"
   solutionStatusValue="101"
   solutionStatusString="integer optimal solution"
   solutionMethodString="mip"
   primalFeasible="1"
   dualFeasible="1"
   MIPNodes="19901"
   MIPIterations="1044424"
   writeLevel="3"/>
 <quality
   epInt="1.0000000000000001e-05"
   epRHS="9.9999999999999995e-07"
   maxIntInfeas="0"
   maxPrimalInfeas="3.3306690738754696e-16"
   maxX="4"
   maxSlack="10"/>
 <variables>
  <variable name="Y(3,5)" index="126" value="1"/>
  <variable name="Y(22,1)" index="1281" value="1"/>
  <variable name="Y(23,2)" index="1343" value="1"/>
  <variable name="Y(30,11)" index="1779" value="1"/>
  <variable name="Y(65,28)" index="3931" value="1"/>
  <variable name="Y(129,19)" index="7826" value="1"/>
  <variable name="Y(133,25)" index="8076" value="1"/>
  <variable name="Y(158,30)" index="9606" value="1"/>
  <variable name="Y(162,6)" index="9826" value="1"/>
  <variable name="Y(179,8)" index="10865" value="1"/>
  <variable name="Y(197,12)" index="11967" value="1"/>
  <variable name="Y(239,23)" index="14540" value="1"/>
  <variable name="Y(261,20)" index="15879" value="1"/>
  <variable name="Y(276,10)" index="16784" value="1"/>
  <variable name="Y(285,21)" index="17344" value="1"/>
  <variable name="Y(286,22)" index="17406" value="1"/>
  <variable name="Y(303,13)" index="18434" value="1"/>
  <variable name="Y(350,26)" index="21314" value="1"/>
  <variable name="Y(367,18)" index="22343" value="1"/>
  <variable name="Y(373,4)" index="22695" value="1"/>
  <variable name="Y(391,16)" index="23805" value="1"/>
  <variable name="Y(413,17)" index="25148" value="1"/>
  <variable name="Y(418,27)" index="25463" value="1"/>
  <variable name="Y(421,31)" index="25650" value="1"/>
  <variable name="Y(440,23)" index="26801" value="1"/>
  <variable name="Y(462,15)" index="28135" value="1"/>
  <variable name="Y(522,24)" index="31804" value="1"/>
  <variable name="Y(563,29)" index="34310" value="1"/>
  <variable name="Y(567,3)" index="34528" value="1"/>
  <variable name="Y(591,7)" index="35996" value="1"/>
  <variable name="X(1,33,22)" index="36316" value="1"/>
  <variable name="X(2,7,3)" index="36892" value="1"/>
  <variable name="X(2,34,23)" index="37507" value="1"/>
  <variable name="X(3,13,65)" index="38144" value="1"/>
  <variable name="X(3,24,522)" index="39196" value="1"/>
  <variable name="X(3,35,567)" index="39836" value="1"/>
  <variable name="X(4,1,22)" index="39886" value="1"/>
  <variable name="X(4,23,239)" index="40698" value="1"/>
  <variable name="X(4,24,567)" index="41621" value="1"/>
  <variable name="X(4,36,373)" index="42022" value="1"/>
  <variable name="X(5,6,129)" index="42373" value="1"/>
  <variable name="X(5,7,179)" index="43018" value="1"/>
  <variable name="X(5,37,3)" index="43437" value="1"/>
  <variable name="X(6,5,179)" index="44208" value="1"/>
  <variable name="X(6,10,129)" index="44753" value="1"/>
  <variable name="X(6,38,162)" index="45381" value="1"/>
  <variable name="X(7,2,23)" index="45837" value="1"/>
  <variable name="X(7,5,3)" index="46412" value="1"/>
  <variable name="X(7,8,179)" index="47183" value="1"/>
  <variable name="X(7,31,158)" index="47757" value="1"/>
  <variable name="X(7,39,591)" index="48785" value="1"/>
  <variable name="X(8,7,158)" index="48947" value="1"/>
  <variable name="X(8,40,179)" index="49563" value="1"/>
  <variable name="X(9,10,162)" index="50141" value="1"/>
  <variable name="X(10,6,162)" index="50736" value="1"/>
  <variable name="X(10,18,367)" index="51536" value="1"/>
  <variable name="X(10,19,129)" index="51893" value="1"/>
  <variable name="X(10,42,276)" index="52635" value="1"/>
  <variable name="X(11,12,197)" index="53151" value="1"/>
  <variable name="X(11,43,30)" index="53579" value="1"/>
  <variable name="X(12,11,30)" index="54174" value="1"/>
  <variable name="X(12,27,133)" index="54872" value="1"/>
  <variable name="X(12,29,563)" index="55897" value="1"/>
  <variable name="X(12,31,421)" index="56350" value="1"/>
  <variable name="X(12,44,197)" index="56721" value="1"/>
  <variable name="X(13,3,522)" index="57641" value="1"/>
  <variable name="X(13,28,65)" index="57779" value="1"/>
  <variable name="X(13,45,303)" index="58612" value="1"/>
  <variable name="X(14,31,261)" index="59165" value="1"/>
  <variable name="X(15,16,391)" index="59890" value="1"/>
  <variable name="X(15,21,285)" index="60379" value="1"/>
  <variable name="X(15,25,133)" index="60822" value="1"/>
  <variable name="X(15,26,350)" index="61634" value="1"/>
  <variable name="X(15,47,462)" index="62341" value="1"/>
  <variable name="X(16,15,350)" index="62824" value="1"/>
  <variable name="X(16,17,413)" index="63482" value="1"/>
  <variable name="X(16,48,391)" index="64055" value="1"/>
  <variable name="X(17,16,350)" index="64609" value="1"/>
  <variable name="X(17,18,276)" index="65130" value="1"/>
  <variable name="X(17,49,413)" index="65862" value="1"/>
  <variable name="X(18,10,276)" index="66320" value="1"/>
  <variable name="X(18,17,350)" index="66989" value="1"/>
  <variable name="X(18,50,367)" index="67601" value="1"/>
  <variable name="X(19,10,367)" index="68196" value="1"/>
  <variable name="X(19,51,129)" index="68553" value="1"/>
  <variable name="X(20,31,373)" index="69392" value="1"/>
  <variable name="X(20,52,261)" index="69875" value="1"/>
  <variable name="X(21,15,391)" index="70600" value="1"/>
  <variable name="X(21,53,285)" index="71089" value="1"/>
  <variable name="X(22,26,418)" index="71817" value="1"/>
  <variable name="X(22,54,286)" index="72280" value="1"/>
  <variable name="X(23,4,373)" index="72962" value="1"/>
  <variable name="X(23,31,440)" index="73624" value="1"/>
  <variable name="X(23,55,239)" index="74018" value="1"/>
  <variable name="X(24,3,567)" index="74941" value="1"/>
  <variable name="X(24,4,239)" index="75208" value="1"/>
  <variable name="X(24,56,522)" index="76086" value="1"/>
  <variable name="X(25,15,462)" index="76621" value="1"/>
  <variable name="X(25,57,133)" index="76887" value="1"/>
  <variable name="X(26,15,133)" index="77482" value="1"/>
  <variable name="X(26,22,286)" index="78230" value="1"/>
  <variable name="X(26,27,418)" index="78957" value="1"/>
  <variable name="X(26,58,350)" index="79484" value="1"/>
  <variable name="X(27,12,421)" index="80150" value="1"/>
  <variable name="X(27,26,133)" index="80457" value="1"/>
  <variable name="X(27,59,418)" index="81337" value="1"/>
  <variable name="X(28,13,303)" index="81817" value="1"/>
  <variable name="X(28,29,30)" index="82139" value="1"/>
  <variable name="X(28,60,65)" index="82769" value="1"/>
  <variable name="X(29,12,30)" index="83329" value="1"/>
  <variable name="X(29,28,303)" index="84197" value="1"/>
  <variable name="X(29,61,563)" index="85052" value="1"/>
  <variable name="X(30,31,563)" index="85647" value="1"/>
  <variable name="X(30,62,158)" index="85837" value="1"/>
  <variable name="X(31,7,591)" index="86865" value="1"/>
  <variable name="X(31,12,563)" index="87432" value="1"/>
  <variable name="X(31,20,261)" index="87725" value="1"/>
  <variable name="X(31,23,373)" index="88432" value="1"/>
  <variable name="X(31,30,158)" index="88812" value="1"/>
  <variable name="X(31,63,421)" index="89670" value="1"/>
  <variable name="X(32,31,591)" index="90435" value="1"/>
  <variable name="C(3,7)" index="90452" value="1"/>
  <variable name="C(3,5)" index="90453" value="2"/>
  <variable name="C(22,1)" index="90546" value="1"/>
  <variable name="C(23,2)" index="90553" value="1"/>
  <variable name="C(30,29)" index="90597" value="1"/>
  <variable name="C(30,12)" index="90598" value="2"/>
  <variable name="C(30,11)" index="90599" value="3"/>
  <variable name="C(65,13)" index="90788" value="1"/>
  <variable name="C(65,28)" index="90789" value="2"/>
  <variable name="C(129,6)" index="91084" value="1"/>
  <variable name="C(129,10)" index="91085" value="2"/>
  <variable name="C(129,19)" index="91086" value="3"/>
  <variable name="C(133,27)" index="91101" value="1"/>
  <variable name="C(133,26)" index="91102" value="2"/>
  <variable name="C(133,15)" index="91103" value="3"/>
  <variable name="C(133,25)" index="91104" value="4"/>
  <variable name="C(158,7)" index="91219" value="1"/>
  <variable name="C(158,31)" index="91220" value="2"/>
  <variable name="C(158,30)" index="91221" value="3"/>
  <variable name="C(162,10)" index="91238" value="1"/>
  <variable name="C(162,6)" index="91239" value="2"/>
  <variable name="C(179,5)" index="91332" value="1"/>
  <variable name="C(179,7)" index="91333" value="2"/>
  <variable name="C(179,8)" index="91334" value="3"/>
  <variable name="C(197,12)" index="91434" value="1"/>
  <variable name="C(239,4)" index="91643" value="1"/>
  <variable name="C(239,23)" index="91644" value="2"/>
  <variable name="C(261,31)" index="91747" value="1"/>
  <variable name="C(261,20)" index="91748" value="2"/>
  <variable name="C(276,18)" index="91829" value="1"/>
  <variable name="C(276,10)" index="91830" value="2"/>
  <variable name="C(285,21)" index="91869" value="1"/>
  <variable name="C(286,22)" index="91872" value="1"/>
  <variable name="C(303,28)" index="91965" value="1"/>
  <variable name="C(303,13)" index="91966" value="2"/>
  <variable name="C(350,17)" index="92238" value="1"/>
  <variable name="C(350,16)" index="92239" value="2"/>
  <variable name="C(350,15)" index="92240" value="3"/>
  <variable name="C(350,26)" index="92241" value="4"/>
  <variable name="C(367,10)" index="92340" value="1"/>
  <variable name="C(367,18)" index="92341" value="2"/>
  <variable name="C(373,31)" index="92378" value="0.99999999999999967"/>
  <variable name="C(373,23)" index="92379" value="1.9999999999999996"/>
  <variable name="C(373,4)" index="92380" value="2.9999999999999996"/>
  <variable name="C(391,15)" index="92478" value="1"/>
  <variable name="C(391,16)" index="92479" value="2"/>
  <variable name="C(413,17)" index="92605" value="1"/>
  <variable name="C(418,26)" index="92627" value="1"/>
  <variable name="C(418,27)" index="92628" value="2"/>
  <variable name="C(421,12)" index="92643" value="0.99999999999999967"/>
  <variable name="C(421,31)" index="92644" value="1.9999999999999996"/>
  <variable name="C(462,15)" index="92865" value="1"/>
  <variable name="C(522,3)" index="93163" value="1"/>
  <variable name="C(522,24)" index="93164" value="2"/>
  <variable name="C(563,31)" index="93351" value="1"/>
  <variable name="C(563,12)" index="93352" value="2"/>
  <variable name="C(563,29)" index="93353" value="3"/>
  <variable name="C(567,24)" index="93366" value="1"/>
  <variable name="C(567,3)" index="93367" value="2"/>
  <variable name="C(591,31)" index="93459" value="1"/>
  <variable name="C(591,7)" index="93460" value="2"/>
 </variables>
</CPLEXSolution>
